1691657836991596 -1 0
h 2 -3 0
1667729291385884 -4 0
h 5 -6 0
h 7 8 0
h 9 -6 0
h 10 -11 0
h 3 -10 0
h 6 -12 -8 0
h -13 1 9 0
h 1 -9 13 0
h -7 -5 12 0
7152523832714653 -2 0
h -14 15 0
h -7 -15 0
h 11 6 0
h 4 14 12 0
h 3 7 0
